letting n =  10
letting blocks =  [[2, 1], [3, 1], [3, 4], [3, 5], [3, 6], [4, 1], [4, 2], [4, 4], [4, 5], [4, 9], [5, 1], [5, 7], [5, 8], [6, 5], [6, 6], [7, 7], [7, 8], [8, 3], [8, 7], [9, 4], [9, 5], [10, 8]]
